50
6404

444 492
246 780
220 77
813 322
978 94
37 311
244 826
905 696
748 742
231 80
767 395
906 856
434 666
847 335
225 658
574 6
247 649
406 372
417 594
191 824
703 18
146 44
25 138
467 596
35 187
37 877
884 519
884 448
999 293
686 507
396 728
155 142
431 295
89 802
971 230
152 493
45 259
891 511
388 986
987 667
375 558
719 758
846 360
93 515
976 947
217 793
220 550
551 544
102 960
134 574
